(declare-const x0 (_ BitVec 32))
(declare-const x1 (_ BitVec 32))
(declare-const y0 (_ BitVec 32))
(declare-const y1 (_ BitVec 32))
(declare-const z0 (_ BitVec 32))
(declare-const z1 (_ BitVec 32))
(declare-const r1 (_ BitVec 32))
(declare-const r2 (_ BitVec 32))
(assert (= z1 y0))
(assert (= y1 x0))
(assert (= x1 z1))
(assert (= r1 (bvmul x1 x1)))
(assert (= r2 (bvmul y0 y0)))
(assert (not (= r1 r2)))
(check-sat)